[runlim] version:		1.10
[runlim] time limit:		311040000 seconds
[runlim] real time limit:	1800 seconds
[runlim] space limit:		30000 MB
[runlim] argv[0]:		python
[runlim] argv[1]:		FE.py
[runlim] argv[2]:		U-662_bus.mtx.rnd
[runlim] start:			Wed Oct  9 05:30:07 2024
[runlim] main pid:		17664
[runlim] log captured:
[runlim] sample:		10.0 time, 10.4 real, 1096.0 MB
[runlim] sample:		20.0 time, 20.4 real, 2100.2 MB
[runlim] sample:		30.0 time, 30.4 real, 3111.0 MB
[runlim] sample:		40.0 time, 40.4 real, 4271.0 MB
220
219
Version identifier: 20.1.0.0 | 2020-11-10 | 9bedb6d68
CPXPARAM_Simplex_PGradient                       4
CPXPARAM_Read_DataCheck                          1
CPXPARAM_MIP_Strategy_File                       3
CPXPARAM_TimeLimit                               1800
CPXPARAM_WorkMem                                 122880
[runlim] sample:		50.0 time, 50.4 real, 5305.5 MB
[runlim] sample:		60.0 time, 60.4 real, 7338.9 MB
[runlim] sample:		70.0 time, 70.4 real, 7340.1 MB
[runlim] sample:		80.0 time, 80.4 real, 7340.1 MB
Presolve has eliminated 331 rows and 331 columns...
Tried aggregator 1 time.
[runlim] sample:		90.0 time, 90.4 real, 8676.1 MB
[runlim] sample:		102.6 time, 100.4 real, 7369.0 MB
[runlim] sample:		112.6 time, 110.4 real, 7369.0 MB
[runlim] sample:		122.6 time, 120.4 real, 7369.0 MB
[runlim] sample:		132.6 time, 130.4 real, 7369.0 MB
[runlim] sample:		142.6 time, 140.4 real, 7369.0 MB
[runlim] sample:		152.6 time, 150.4 real, 7369.0 MB
[runlim] sample:		162.6 time, 160.4 real, 7369.0 MB
[runlim] sample:		172.6 time, 170.4 real, 7369.0 MB
[runlim] sample:		182.6 time, 180.4 real, 7369.0 MB
[runlim] sample:		192.6 time, 190.4 real, 7369.0 MB
[runlim] sample:		202.6 time, 200.4 real, 7369.0 MB
Presolve has eliminated 331 rows and 331 columns...
MIP Presolve eliminated 331 rows and 331 columns.
MIP Presolve modified 161403 coefficients.
Reduced MIP has 402851 rows, 437913 columns, and 176468493 nonzeros.
Reduced MIP has 437913 binaries, 0 generals, 0 SOSs, and 0 indicators.
Presolve time = 150.13 sec. (197239.55 ticks)
[runlim] sample:		212.6 time, 210.4 real, 7362.3 MB
[runlim] sample:		222.6 time, 220.4 real, 9710.1 MB
[runlim] sample:		232.6 time, 230.4 real, 17097.3 MB
[runlim] sample:		242.6 time, 240.4 real, 17108.4 MB
[runlim] sample:		252.6 time, 250.4 real, 18861.6 MB
[runlim] sample:		262.6 time, 260.4 real, 17125.7 MB
[runlim] sample:		272.6 time, 270.4 real, 17125.7 MB
[runlim] sample:		282.6 time, 280.4 real, 17125.7 MB
[runlim] sample:		292.6 time, 290.4 real, 17125.7 MB
[runlim] sample:		302.6 time, 300.4 real, 17125.7 MB
[runlim] sample:		312.6 time, 310.4 real, 17125.7 MB
[runlim] sample:		322.6 time, 320.4 real, 17125.7 MB
[runlim] sample:		332.6 time, 330.4 real, 17125.7 MB
[runlim] sample:		342.6 time, 340.4 real, 17125.7 MB
[runlim] sample:		352.6 time, 350.4 real, 17125.7 MB
[runlim] sample:		362.6 time, 360.4 real, 17125.7 MB
[runlim] sample:		372.6 time, 370.4 real, 17125.7 MB
[runlim] sample:		382.6 time, 380.4 real, 10970.8 MB
Probing time = 0.89 sec. (151.72 ticks)
[runlim] sample:		393.8 time, 390.4 real, 15460.9 MB
[runlim] sample:		403.8 time, 400.4 real, 15466.9 MB
Presolve has eliminated 0 rows and 0 columns...
[runlim] sample:		413.8 time, 410.4 real, 15492.0 MB
Tried aggregator 1 time.
[runlim] sample:		426.4 time, 420.4 real, 15477.6 MB
[runlim] sample:		436.4 time, 430.4 real, 15477.6 MB
[runlim] sample:		446.4 time, 440.4 real, 15477.6 MB
[runlim] sample:		456.4 time, 450.4 real, 15477.6 MB
[runlim] sample:		466.4 time, 460.4 real, 15477.6 MB
[runlim] sample:		476.4 time, 470.4 real, 15477.6 MB
[runlim] sample:		486.4 time, 480.4 real, 15477.6 MB
[runlim] sample:		496.4 time, 490.4 real, 15477.6 MB
[runlim] sample:		506.4 time, 500.4 real, 15477.6 MB
[runlim] sample:		516.4 time, 510.4 real, 15477.6 MB
[runlim] sample:		526.4 time, 520.4 real, 15477.6 MB
[runlim] sample:		536.4 time, 530.4 real, 15477.6 MB
Presolve has eliminated 0 rows and 0 columns...
Detecting symmetries...
[runlim] sample:		546.4 time, 540.4 real, 18281.4 MB
MIP Presolve modified 30660 coefficients.
Reduced MIP has 402711 rows, 437913 columns, and 176437833 nonzeros.
Reduced MIP has 437913 binaries, 0 generals, 0 SOSs, and 0 indicators.
Presolve time = 161.53 sec. (212923.34 ticks)
[runlim] sample:		558.5 time, 550.4 real, 18484.5 MB
[runlim] sample:		588.5 time, 560.4 real, 22026.5 MB
Probing time = 0.94 sec. (152.84 ticks)
Clique table members: 402711.
MIP emphasis: balance optimality and feasibility.
MIP search method: dynamic search.
Parallel mode: deterministic, using up to 8 threads.
[runlim] sample:		619.0 time, 570.4 real, 22238.5 MB
[runlim] end:			Wed Oct  9 05:39:41 2024
[runlim] status:		out of memory
[runlim] result:		3
[runlim] children:		0
[runlim] real:			574.47 seconds
[runlim] time:			637.86 seconds
[runlim] space:			30333.2 MB
[runlim] samples:		5740
